c 
p cnf 111 181
-14 -20 21 0
-21 -11 22 0
-22 10 -13 0
-9 3 23 0
-23 15 -11 0
-4 -1 24 0
-24 20 25 0
-25 -3 -2 0
-2 26 27 0
-2 26 -27 0
-2 -26 27 0
-2 -26 -27 0
16 28 29 0
16 28 -29 0
16 -28 29 0
16 -28 -29 0
1 -10 20 0
-9 -2 30 0
-9 -2 -30 0
-1 9 14 0
6 14 31 0
6 14 -31 0
7 -2 32 0
-32 14 8 0
-1 16 33 0
-33 -5 12 0
-6 34 35 0
-6 34 -35 0
-6 -34 35 0
-6 -34 -35 0
-19 -15 36 0
-36 6 -20 0
-17 -4 37 0
-37 -8 38 0
-38 -16 11 0
1 -5 39 0
-39 -3 18 0
-19 -5 40 0
-40 4 14 0
2 4 41 0
-41 -17 19 0
-5 -7 42 0
-5 -7 -42 0
7 43 44 0
7 43 -44 0
7 -43 44 0
7 -43 -44 0
1 2 12 0
5 -4 10 0
1 45 46 0
1 45 -46 0
1 -45 46 0
1 -45 -46 0
2 -15 47 0
2 -15 -47 0
-18 16 48 0
-18 16 -48 0
4 8 -14 0
-20 -12 49 0
-49 15 -5 0
-7 19 50 0
-50 10 -20 0
14 -1 51 0
-51 20 -12 0
-8 17 52 0
-52 -18 53 0
-53 4 -10 0
-14 2 54 0
-54 8 55 0
-55 4 -12 0
17 56 57 0
17 56 -57 0
17 -56 57 0
17 -56 -57 0
-18 -5 58 0
-58 -3 14 0
-20 -12 59 0
-20 -12 -59 0
-11 -2 60 0
-60 9 61 0
-61 -3 8 0
17 -2 62 0
-62 -4 63 0
-63 18 14 0
-14 -10 19 0
19 -6 64 0
19 -6 -64 0
-8 17 -7 0
-20 1 65 0
-20 1 -65 0
18 4 66 0
-66 20 -2 0
14 -16 67 0
-67 -18 68 0
-68 8 -6 0
1 -5 69 0
-69 -16 70 0
-70 10 -7 0
-20 14 71 0
-71 5 72 0
-72 -15 -16 0
7 -8 73 0
7 -8 -73 0
-17 5 74 0
-74 11 20 0
-17 -15 75 0
-17 -15 -75 0
12 -9 76 0
12 -9 -76 0
-8 15 77 0
-77 -3 -4 0
-17 6 78 0
-78 7 13 0
-5 18 20 0
12 -18 79 0
-79 15 2 0
11 -12 20 0
-2 -11 80 0
-80 -13 81 0
-81 -10 8 0
-17 -8 -13 0
20 82 83 0
20 82 -83 0
20 -82 83 0
20 -82 -83 0
15 84 85 0
15 84 -85 0
15 -84 85 0
15 -84 -85 0
2 -5 86 0
-86 6 87 0
-87 -15 -17 0
-15 2 88 0
-88 17 89 0
-89 -5 4 0
5 -10 90 0
-90 20 6 0
-10 -12 91 0
-91 8 -9 0
-10 -18 92 0
-92 -17 93 0
-93 7 -8 0
-3 -8 18 0
20 94 95 0
20 94 -95 0
20 -94 95 0
20 -94 -95 0
-5 -10 -4 0
16 18 96 0
16 18 -96 0
-14 -11 97 0
-14 -11 -97 0
17 -14 -3 0
1 -17 12 0
2 14 -13 0
17 16 98 0
-98 -7 19 0
-4 99 100 0
-4 99 -100 0
-4 -99 100 0
-4 -99 -100 0
-3 -7 101 0
-3 -7 -101 0
-20 -16 102 0
-20 -16 -102 0
-13 11 103 0
-103 1 104 0
-104 5 -14 0
-17 10 105 0
-105 -20 106 0
-106 18 16 0
-1 -20 107 0
-107 13 6 0
11 -17 15 0
20 -15 108 0
20 -15 -108 0
16 3 109 0
16 3 -109 0
-8 14 110 0
-110 16 111 0
-111 7 -10 0
